RT is False
Default write of storage_offers_DA.csv just to have a file (but constraint should be inactive)
Reading model...
...model read.
creating competitive generators file...
...competitive generators recorded.
Loading data...
.. day-ahead data with real-time VRE data read.
Compiling instance...
...instance created.
Creating Offer Mitigation (model will solve as dispatch if TRUE)...
NOTE: storage offers will not be mitigated
...storage offer mitigation file created
Converting model to MPEC...
...converted
NOTE: initial MIP solve with only storage competitive to get feasible solution
Solving...

Welcome to IBM(R) ILOG(R) CPLEX(R) Interactive Optimizer 12.9.0.0
  with Simplex, Mixed Integer & Barrier Optimizers
5725-A06 5725-A29 5724-Y48 5724-Y49 5724-Y54 5724-Y55 5655-Y21
Copyright IBM Corp. 1988, 2019.  All Rights Reserved.

Type 'help' for a list of available commands.
Type 'help' followed by a command name for more
information on commands.

CPLEX> Logfile 'cplex.log' closed.
Logfile 'C:\Users\llavin\Desktop\test919\logs\tmp6a806yla.cplex.log' open.
CPLEX> New value for parallel optimization mode: -1
CPLEX> New value for mixed integer optimality gap tolerance: 0.01
CPLEX> New value for integrality tolerance: 1e-09
CPLEX> New value for feasibility tolerance: 0.01
CPLEX> New value for deterministic time limit in ticks: 75000
CPLEX> Problem 'C:\Users\llavin\Desktop\test919\logs\tmpug9mfvo9.pyomo.lp' read.
Read time = 0.23 sec. (14.73 ticks)
CPLEX> Problem name         : C:\Users\llavin\Desktop\test919\logs\tmpug9mfvo9.pyomo.lp
Objective sense      : Maximize
Variables            :   53805  [Nneg: 1,  Box: 22000,  Free: 4464,
                                 Binary: 27340]
Objective nonzeros   :    9031
Linear constraints   :  123205  [Less: 41346,  Greater: 59096,  Equal: 22763]
  Nonzeros           :  291755
  RHS nonzeros       :   67493

Variables            : Min LB: -5000.000        Max UB: 1000000.       
Objective nonzeros   : Min   : 0.01666667       Max   : 2500.000       
Linear constraints   :
  Nonzeros           : Min   : 0.01666667       Max   : 1000000.       
  RHS nonzeros       : Min   : 0.01666667       Max   : 1000000.       
CPLEX> CPXPARAM_Parallel                                -1
CPXPARAM_Simplex_Tolerances_Feasibility          0.01
CPXPARAM_DetTimeLimit                            75000
CPXPARAM_MIP_Tolerances_MIPGap                   0.01
CPXPARAM_MIP_Tolerances_Integrality              1.0000000000000001e-09
Tried aggregator 3 times.
MIP Presolve eliminated 88723 rows and 19048 columns.
MIP Presolve added 3373 rows and 0 columns.
MIP Presolve modified 24786 coefficients.
Aggregator did 12958 substitutions.
Reduced MIP has 24897 rows, 21244 columns, and 71010 nonzeros.
Reduced MIP has 8393 binaries, 0 generals, 0 SOSs, and 0 indicators.
Presolve time = 0.31 sec. (176.04 ticks)
Probing fixed 398 vars, tightened 2855 bounds.
Probing time = 1.20 sec. (892.47 ticks)
Tried aggregator 2 times.
MIP Presolve eliminated 891 rows and 796 columns.
MIP Presolve modified 2215 coefficients.
Aggregator did 46 substitutions.
Reduced MIP has 23960 rows, 20402 columns, and 68294 nonzeros.
Reduced MIP has 7995 binaries, 0 generals, 0 SOSs, and 0 indicators.
Presolve time = 0.11 sec. (66.94 ticks)
Probing time = 0.03 sec. (16.09 ticks)
Clique table members: 6280.
MIP emphasis: balance optimality and feasibility.
MIP search method: dynamic search.
Parallel mode: opportunistic, using up to 32 threads.
Root relaxation solution time = 0.50 sec. (620.53 ticks)

        Nodes                                         Cuts/
   Node  Left     Objective  IInf  Best Integer    Best Bound    ItCnt     Gap

      0     0       70.6142   862                     70.6142     6609         
      0     0       54.8993    15                 Flowcuts: 6     6610         
      0     0       54.8993    13                Flowcuts: 12     6612         
      0     0       54.8993    11                Flowcuts: 12     6614         
      0     0       54.8993     6                Flowcuts: 12     6616         
      0     0       54.8993     6                Flowcuts: 12     6618         
      0     2       54.8993     6                     54.8993     6618         
Elapsed time = 8.86 sec. (5148.67 ticks, tree = 0.02 MB, solutions = 0)
    417   162       52.3320     3                     54.1347     7437         
    761   529       52.3320     2                     54.1347    11398         
   1191   542     -192.0682     4                     54.1347    11570         
   1710  1008       52.3320     3                     54.1347    18187         
   1936  1124    infeasible                           54.1347    19429         
   2090  1034       43.9077     2                     54.1347    18500         
   2223  1596       53.7281     3                     54.1347    24174         
   2392  1584       52.3320     2                     54.1347    24145         
   2611  1450       53.7281     3                     54.1347    22951         
   3183  1787    infeasible                           54.1347    27316         
Elapsed time = 18.31 sec. (8257.93 ticks, tree = 9.53 MB, solutions = 0)
   3464  1745      -30.0543     1                     54.1347    26804         
   3750  1925    infeasible                           54.1347    28893         
   4032  2024    infeasible                           54.1347    29385         
   4350  2204    infeasible                           54.1347    30138         
   4622  2137    infeasible                           54.1347    29739         
   4865  2194       52.7459     1                     54.1347    30016         
   5123  2218    infeasible                           54.1347    30264         
   5430  2256       53.7281     2                     54.1347    30617         
*  5625+ 2244                         -547.4618       54.1347           109.89%
   5902  2336    infeasible           -547.4618       54.1347    31593  109.89%
Elapsed time = 37.73 sec. (17560.04 ticks, tree = 13.16 MB, solutions = 1)
   6227  2512       52.7459     3     -547.4618       54.1347    38119  109.89%
   6494  2469       53.0965     4     -547.4618       54.1347    33099  109.89%
   6807  2398       52.7459     1     -547.4618       54.1347    32367  109.89%
*  6933  2542      integral     0     -194.2103       54.1347    38322  127.87%
   7188  2551       52.3320     3     -194.2103       54.1347    33815  127.87%
   7525  2310        cutoff           -194.2103       54.1347    35018  127.87%
   7998  2781       52.3320     3     -113.2628       54.1347    40338  147.80%
   8347  2523        cutoff           -113.2628       54.1347    37900  147.80%
   8778  2531     -142.9042     4     -113.2628       54.1347    38509  147.80%
   9173  2431        cutoff           -113.2628       54.1347    43404  147.80%
   9538  2364      -71.4080     4     -113.2628       54.1347    42533  147.80%
Elapsed time = 50.94 sec. (27115.19 ticks, tree = 13.58 MB, solutions = 5)
   9864  2431        cutoff           -113.2628       54.1347    43701  147.80%
  10177  2431        cutoff           -113.2628       54.1347    43856  147.80%
  10519  2464       53.7281     3     -113.2628       54.1347    43382  147.80%
  10733  2535       53.1876     1     -113.2628       54.1347    43937  147.80%
  10764  3832  -1.00000e+75     4     -113.2628       54.1347    62599  147.80%
  12078   413        cutoff           -113.2628       54.1347    63972  147.80%
  13441   499        2.1317     1     -113.2628       54.1347    64596  147.80%
  14745   597        3.7536     1     -113.2628       54.1347    65312  147.80%
  16109   982      -40.3757     3     -113.2628       54.1347    66749  147.80%
  16840  1260      -34.6132     1     -113.2628       54.1347    68128  147.80%
Elapsed time = 73.16 sec. (38261.47 ticks, tree = 3.10 MB, solutions = 5)
  17599  1279        cutoff           -113.2628       54.1347    68220  147.80%
  18512  1334        cutoff             35.6421       54.1347    68457   51.88%
  19527  1092        cutoff             35.6421       54.1347    69263   51.88%
  20733  1078       52.7459     1       35.6421       54.1347    70859   51.88%
  21847  1146       52.7459     4       35.6421       54.1347    71138   51.88%
  22906  1416        cutoff             35.6421       54.1347    72397   51.88%
  23861  1366        cutoff             35.6421       54.1347    72199   51.88%
  24914  1613       37.6675     2       35.6421       54.1347    73318   51.88%
  25862  1931       39.5492     3       35.6421       54.1347    74638   51.88%
  26687  2146        cutoff             35.6421       54.1347    75681   51.88%
Elapsed time = 98.80 sec. (47810.23 ticks, tree = 6.32 MB, solutions = 6)
  27464  2288       39.5492     1       35.6421       54.1347    76636   51.88%
  28279  2444       37.7248    11       35.6421       54.1347    77899   51.88%
  29131  2469        cutoff             35.6421       54.1347    78133   51.88%
  29949  2641        cutoff             35.6421       54.1347    79287   51.88%
  30802  2603       49.8048     2       35.6421       54.1347    79108   51.88%
  31605  2696        cutoff             49.7721       54.1347    79955    8.77%
* 31920  2170      integral     0       54.1064       54.1347    82968    0.05%
  32375  2943       39.5492     1       54.1064       54.1347    82388    0.05%
  32671  2202        cutoff             54.1064       54.1347    82998    0.05%

GUB cover cuts applied:  1
Cover cuts applied:  1
Implied bound cuts applied:  4
Flow cuts applied:  2
Mixed integer rounding cuts applied:  3
Gomory fractional cuts applied:  3

Root node processing (before b&c):
  Real time             =    7.56 sec. (5100.03 ticks)
Parallel b&c, 32 threads:
  Real time             =  105.20 sec. (50838.27 ticks)
  Sync time (average)   =    0.79 sec.
  Wait time (average)   =    0.20 sec.
                          ------------
Total (root+branch&cut) =  112.77 sec. (55938.31 ticks)

Solution pool: 8 solutions saved.

MIP - Integer optimal, tolerance (0.01/1e-06):  Objective =  5.4106381476e+01
Current MIP best bound =  5.4134717887e+01 (gap = 0.0283364, 0.05%)
Solution time =  112.78 sec.  Iterations = 87395  Nodes = 32713 (71)
Deterministic time = 55938.46 ticks  (495.99 ticks/sec)

CPLEX> Incumbent solution written to file 'C:\Users\llavin\Desktop\test919\logs\tmp45e8xecq.cplex.sol'.
CPLEX> NOTE: no warmstart specified for MIP iteration, default behavior is true
NOTE: resolving with all competitive generators using storage-only solution to warmstart
Solving...

Welcome to IBM(R) ILOG(R) CPLEX(R) Interactive Optimizer 12.9.0.0
  with Simplex, Mixed Integer & Barrier Optimizers
5725-A06 5725-A29 5724-Y48 5724-Y49 5724-Y54 5724-Y55 5655-Y21
Copyright IBM Corp. 1988, 2019.  All Rights Reserved.

Type 'help' for a list of available commands.
Type 'help' followed by a command name for more
information on commands.

CPLEX> Logfile 'cplex.log' closed.
Logfile 'C:\Users\llavin\Desktop\test919\logs\tmpnls5qk2h.cplex.log' open.
CPLEX> New value for parallel optimization mode: -1
CPLEX> New value for mixed integer optimality gap tolerance: 0.01
CPLEX> New value for integrality tolerance: 1e-09
CPLEX> New value for feasibility tolerance: 0.01
CPLEX> New value for deterministic time limit in ticks: 75000
CPLEX> Problem 'C:\Users\llavin\Desktop\test919\logs\tmpnl9tarsu.pyomo.lp' read.
Read time = 0.23 sec. (14.75 ticks)
CPLEX> MIP start file 'C:\Users\llavin\Desktop\test919\logs\tmp_hmj7awr.cplex.mst' read.
CPLEX> Problem name         : C:\Users\llavin\Desktop\test919\logs\tmpnl9tarsu.pyomo.lp
Objective sense      : Maximize
Variables            :   54525  [Nneg: 1,  Box: 22720,  Free: 4464,
                                 Binary: 27340]
Objective nonzeros   :    9727
Linear constraints   :  123205  [Less: 41346,  Greater: 59096,  Equal: 22763]
  Nonzeros           :  291755
  RHS nonzeros       :   67493

Variables            : Min LB: -5000.000        Max UB: 1000000.       
Objective nonzeros   : Min   : 0.01666667       Max   : 2500.000       
Linear constraints   :
  Nonzeros           : Min   : 0.01666667       Max   : 1000000.       
  RHS nonzeros       : Min   : 0.01666667       Max   : 1000000.       
CPLEX> CPXPARAM_Parallel                                -1
CPXPARAM_Simplex_Tolerances_Feasibility          0.01
CPXPARAM_DetTimeLimit                            75000
CPXPARAM_MIP_Tolerances_MIPGap                   0.01
CPXPARAM_MIP_Tolerances_Integrality              1.0000000000000001e-09
Warning:  No solution found from 1 MIP starts.
Retaining values of one MIP start for possible repair.
Tried aggregator 3 times.
MIP Presolve eliminated 88723 rows and 19768 columns.
MIP Presolve added 3373 rows and 0 columns.
MIP Presolve modified 24786 coefficients.
Aggregator did 12958 substitutions.
Reduced MIP has 24897 rows, 21244 columns, and 71010 nonzeros.
Reduced MIP has 8393 binaries, 0 generals, 0 SOSs, and 0 indicators.
Presolve time = 0.28 sec. (176.41 ticks)
Probing fixed 398 vars, tightened 2855 bounds.
Probing time = 1.23 sec. (892.47 ticks)
Tried aggregator 2 times.
MIP Presolve eliminated 891 rows and 796 columns.
MIP Presolve modified 2215 coefficients.
Aggregator did 46 substitutions.
Reduced MIP has 23960 rows, 20402 columns, and 68294 nonzeros.
Reduced MIP has 7995 binaries, 0 generals, 0 SOSs, and 0 indicators.
Presolve time = 0.09 sec. (66.95 ticks)
Probing time = 0.03 sec. (16.09 ticks)
Clique table members: 6280.
MIP emphasis: balance optimality and feasibility.
MIP search method: dynamic search.
Parallel mode: opportunistic, using up to 32 threads.
Root relaxation solution time = 0.41 sec. (324.32 ticks)

        Nodes                                         Cuts/
   Node  Left     Objective  IInf  Best Integer    Best Bound    ItCnt     Gap

      0     0    60524.3497  2088                  60524.3497     7424         
      0     0    60473.7019   637                   Cuts: 934     7885         
      0     0    60413.5131   476                   Cuts: 640     8183         
      0     0    60405.0032   403                   Cuts: 383     8321         
      0     0    60401.4741   369                   Cuts: 149     8374         
      0     0    60401.4675   360                   Cuts: 118     8394         
      0     0    60401.4675   356                    Cuts: 73     8400         
      0     0    60401.4675   355                    Cuts: 66     8402         
Repair heuristic found nothing.
      0     9    58486.8727   334                    Cuts: 10     8492         
Elapsed time = 11.45 sec. (6624.70 ticks, tree = 0.02 MB, solutions = 0)
    422    58    60015.7922   338                  60341.4196     8961         
    724   504    59860.8077   302                  60294.2943    11219         
   1320   676    infeasible                        60294.2943    14197         
   2189   950    58366.0329   234                  60294.2943    39565         
   3129  1534    59840.3420   252                  60294.2943    48660         
   4020  2259    58228.5607   208                  60294.2943    50811         
   4933  4057    58277.1774   199                  60294.2943    55628         
   5801  3585    58441.7119   224                  60294.2943    54875         
   6757  5316    58367.7131   176                  60294.2943    56611         
*  8758  6661      integral     0    57078.6571    60294.2943    58184    5.63%
Elapsed time = 26.67 sec. (9340.60 ticks, tree = 252.74 MB, solutions = 5)
*  9881  3805      integral     0    58421.5095    60294.2943    60977    3.21%
*  9948  3614      integral     0    59768.2519    60294.2943    60509    0.88%
* 10157  3853      integral     0    59824.2518    60294.2943    61055    0.79%

Clique cuts applied:  33
Cover cuts applied:  2
Implied bound cuts applied:  39
Flow cuts applied:  801
Mixed integer rounding cuts applied:  27
Gomory fractional cuts applied:  37

Root node processing (before b&c):
  Real time             =    9.47 sec. (6582.42 ticks)
Parallel b&c, 32 threads:
  Real time             =   18.30 sec. (3490.80 ticks)
  Sync time (average)   =    0.85 sec.
  Wait time (average)   =    0.00 sec.
                          ------------
Total (root+branch&cut) =   27.77 sec. (10073.22 ticks)

Solution pool: 12 solutions saved.

MIP - Integer optimal, tolerance (0.01/1e-06):  Objective =  5.9824251777e+04
Current MIP best bound =  6.0294294292e+04 (gap = 470.043, 0.79%)
Solution time =   27.78 sec.  Iterations = 62963  Nodes = 10159 (964)
Deterministic time = 10073.37 ticks  (362.60 ticks/sec)

CPLEX> Incumbent solution written to file 'C:\Users\llavin\Desktop\test919\logs\tmpnta565cx.cplex.sol'.
CPLEX> Exporting results... 
